nohup: ignoring input
miplib2017_binary-small
symmetric
./result/miplib2017/miplib2017_purebinary_solved.txt
original problem has 12640 variables (6320 bin, 0 int, 0 impl, 6320 cont) and 79 constraints
h80x6320


miplib2017_binary-34
Number of variables 12640
Number of binary variables 6320
* Model status: sollimit
* Solving time: 1.061259
* number of sol :  1
* Model status: optimal
* Solving time: 0.083634
* number of sol :  2
original problem has 3862 variables (3862 bin, 0 int, 0 impl, 0 cont) and 16399 constraints
hanoi5


miplib2017_binary-34
Number of variables 3862
Number of binary variables 3862
